c A SAT instance generated from a 3-CNF formula that had 26 clauses and 13 variables
p cnf 13 26
-2 7 8 0
-7 4 6 0
-6 3 -5 0
13 1 5 0
-11 12 2 0
-4 -7 10 0
-3 5 -13 0
-9 12 6 0
8 6 3 0
-3 11 -1 0
13 6 -8 0
4 -13 -6 0
3 10 11 0
-13 4 7 0
-4 6 -10 0
5 -10 -3 0
-1 6 3 0
-11 -3 2 0
-6 -13 10 0
3 5 12 0
-7 3 11 0
9 10 -13 0
6 -8 -13 0
11 -3 13 0
3 9 10 0
7 -12 -9 0
